{'n_x0_y0': ['n_x1_y0', 'n_x0_y1'], 'n_x0_y1': ['n_x0_y0', 'n_x1_y1', 'n_x0_y2'], 'n_x0_y2': ['n_x0_y1', 'n_x1_y2', 'n_x0_y3'], 'n_x0_y3': ['n_x0_y2', 'n_x1_y3', 'n_x0_y4'], 'n_x0_y4': ['n_x0_y3', 'n_x1_y4', 'n_x0_y5'], 'n_x0_y5': ['n_x0_y4', 'n_x1_y5', 'n_x0_y6'], 'n_x0_y6': ['n_x0_y5', 'n_x1_y6', 'n_x0_y7'], 'n_x0_y7': ['n_x0_y6', 'n_x1_y7'], 'n_x1_y0': ['n_x0_y0', 'n_x2_y0', 'n_x1_y1'], 'n_x1_y1': ['n_x0_y1', 'n_x1_y0', 'n_x2_y1', 'n_x1_y2'], 'n_x1_y2': ['n_x0_y2', 'n_x1_y1', 'n_x2_y2', 'n_x1_y3'], 'n_x1_y3': ['n_x0_y3', 'n_x1_y2', 'n_x2_y3', 'n_x1_y4'], 'n_x1_y4': ['n_x0_y4', 'n_x1_y3', 'n_x2_y4', 'n_x1_y5'], 'n_x1_y5': ['n_x0_y5', 'n_x1_y4', 'n_x2_y5', 'n_x1_y6'], 'n_x1_y6': ['n_x0_y6', 'n_x1_y5', 'n_x2_y6', 'n_x1_y7'], 'n_x1_y7': ['n_x0_y7', 'n_x1_y6', 'n_x2_y7'], 'n_x2_y0': ['n_x1_y0', 'n_x3_y0', 'n_x2_y1'], 'n_x2_y1': ['n_x1_y1', 'n_x2_y0', 'n_x3_y1', 'n_x2_y2'], 'n_x2_y2': ['n_x1_y2', 'n_x2_y1', 'n_x3_y2', 'n_x2_y3'], 'n_x2_y3': ['n_x1_y3', 'n_x2_y2', 'n_x3_y3', 'n_x2_y4'], 'n_x2_y4': ['n_x1_y4', 'n_x2_y3', 'n_x3_y4', 'n_x2_y5'], 'n_x2_y5': ['n_x1_y5', 'n_x2_y4', 'n_x3_y5', 'n_x2_y6'], 'n_x2_y6': ['n_x1_y6', 'n_x2_y5', 'n_x3_y6', 'n_x2_y7'], 'n_x2_y7': ['n_x1_y7', 'n_x2_y6', 'n_x3_y7'], 'n_x3_y0': ['n_x2_y0', 'n_x4_y0', 'n_x3_y1'], 'n_x3_y1': ['n_x2_y1', 'n_x3_y0', 'n_x4_y1', 'n_x3_y2'], 'n_x3_y2': ['n_x2_y2', 'n_x3_y1', 'n_x4_y2', 'n_x3_y3'], 'n_x3_y3': ['n_x2_y3', 'n_x3_y2', 'n_x4_y3', 'n_x3_y4'], 'n_x3_y4': ['n_x2_y4', 'n_x3_y3', 'n_x4_y4', 'n_x3_y5'], 'n_x3_y5': ['n_x2_y5', 'n_x3_y4', 'n_x4_y5', 'n_x3_y6'], 'n_x3_y6': ['n_x2_y6', 'n_x3_y5', 'n_x4_y6', 'n_x3_y7'], 'n_x3_y7': ['n_x2_y7', 'n_x3_y6', 'n_x4_y7'], 'n_x4_y0': ['n_x3_y0', 'n_x4_y1'], 'n_x4_y1': ['n_x3_y1', 'n_x4_y0', 'n_x4_y2'], 'n_x4_y2': ['n_x3_y2', 'n_x4_y1', 'n_x4_y3'], 'n_x4_y3': ['n_x3_y3', 'n_x4_y2', 'n_x4_y4'], 'n_x4_y4': ['n_x3_y4', 'n_x4_y3', 'n_x4_y5'], 'n_x4_y5': ['n_x3_y5', 'n_x4_y4', 'n_x4_y6'], 'n_x4_y6': ['n_x3_y6', 'n_x4_y5', 'n_x4_y7'], 'n_x4_y7': ['n_x3_y7', 'n_x4_y6']}
Set parameter TokenServer to value "opt-license.discovery.wisc.edu"
Set parameter TimeLimit to value 600
Gurobi Optimizer version 9.5.1 build v9.5.1rc2 (linux64)
Thread count: 40 physical cores, 80 logical processors, using up to 32 threads
Optimize a model with 3241 rows, 1600 columns and 10600 nonzeros
Model fingerprint: 0xe5a7a2cb
Variable types: 0 continuous, 1600 integer (1600 binary)
Coefficient statistics:
  Matrix range     [1e+00, 9e+02]
  Objective range  [1e+00, 8e+00]
  Bounds range     [1e+00, 1e+00]
  RHS range        [1e+00, 6e+00]
Presolve removed 530 rows and 39 columns
Presolve time: 0.13s
Presolved: 2711 rows, 1561 columns, 9483 nonzeros
Variable types: 0 continuous, 1561 integer (1561 binary)

Root relaxation: objective 3.968771e+01, 503 iterations, 0.03 seconds (0.02 work units)

    Nodes    |    Current Node    |     Objective Bounds      |     Work
 Expl Unexpl |  Obj  Depth IntInf | Incumbent    BestBd   Gap | It/Node Time

     0     0   39.68771    0   45          -   39.68771      -     -    0s
H    0     0                      44.2645531   39.68771  10.3%     -    0s
     0     0   39.80432    0   68   44.26455   39.80432  10.1%     -    0s
     0     0   39.80432    0   45   44.26455   39.80432  10.1%     -    0s
     0     0   40.04053    0  132   44.26455   40.04053  9.54%     -    0s
     0     0   40.24658    0   66   44.26455   40.24658  9.08%     -    0s
     0     0   40.32691    0  104   44.26455   40.32691  8.90%     -    0s
H    0     0                      43.2645531   40.32691  6.79%     -    0s
     0     0   40.47017    0  164   43.26455   40.47017  6.46%     -    0s
     0     0   40.51967    0  150   43.26455   40.51967  6.34%     -    0s
     0     0   40.54121    0  153   43.26455   40.54121  6.29%     -    0s
     0     0   40.54399    0  155   43.26455   40.54399  6.29%     -    0s
     0     0   40.54493    0  154   43.26455   40.54493  6.29%     -    0s
     0     0   40.58633    0  136   43.26455   40.58633  6.19%     -    0s
     0     0   40.58633    0   45   43.26455   40.58633  6.19%     -    0s
     0     0   40.58633    0   54   43.26455   40.58633  6.19%     -    0s
     0     0   40.58633    0   82   43.26455   40.58633  6.19%     -    0s
     0     0   40.58633    0   77   43.26455   40.58633  6.19%     -    0s
     0     0   40.58633    0   80   43.26455   40.58633  6.19%     -    0s
     0     0   40.58785    0   77   43.26455   40.58785  6.19%     -    0s
     0     0   40.60971    0  157   43.26455   40.60971  6.14%     -    1s
     0     0   40.61416    0  155   43.26455   40.61416  6.13%     -    1s
     0     0   40.61419    0  156   43.26455   40.61419  6.13%     -    1s
     0     0   40.62308    0  134   43.26455   40.62308  6.11%     -    1s
     0     0   40.62322    0  135   43.26455   40.62322  6.11%     -    1s
     0     0   40.62799    0  161   43.26455   40.62799  6.09%     -    1s
     0     0   40.63565    0  160   43.26455   40.63565  6.08%     -    1s
     0     0   40.65292    0  160   43.26455   40.65292  6.04%     -    1s
     0     0   40.65766    0  158   43.26455   40.65766  6.03%     -    1s
     0     0   40.65766    0  158   43.26455   40.65766  6.03%     -    1s
     0     2   40.66184    0  158   43.26455   40.66184  6.02%     -    1s
H  888   407                      43.0929802   40.99212  4.88%  42.4    1s
H  921   413                      43.0284851   40.99212  4.73%  42.4    1s
H 2796   562                      42.3782036   41.55007  1.95%  36.3    2s

Cutting planes:
  Gomory: 2
  MIR: 26
  StrongCG: 14
  GUB cover: 12
  Inf proof: 1
  Zero half: 2

Explored 3820 nodes (125439 simplex iterations) in 2.33 seconds (1.04 work units)
Thread count was 32 (of 80 available processors)

Solution count 5: 42.3782 43.0285 43.093 ... 44.2646

Optimal solution found (tolerance 1.00e-04)
Best objective 4.237820360123e+01, best bound 4.237820360123e+01, gap 0.0000%
